
;this file is automatically generated: Tue Mar 02 16:20:03 CST 2021

;declarations generated

(declare-fun oclExcludes ( Int Int) Bool)
(declare-fun Cardinality ( Int) Int)
(declare-fun class0_Class0IntAttr1 ( Int) Int)
(declare-fun class0_Class0IntAttr2 ( Int) Int)
(declare-fun type_e4ac9951_e1a9_4c4b_944f_8d9a2b70669d_Class11 ( Int) Bool)
(declare-fun type_e4ac9951_e1a9_4c4b_944f_8d9a2b70669d_Class10 ( Int) Bool)
(declare-fun type_e4ac9951_e1a9_4c4b_944f_8d9a2b70669d_Class13 ( Int) Bool)
(declare-fun type_e4ac9951_e1a9_4c4b_944f_8d9a2b70669d_Class12 ( Int) Bool)
(declare-fun type_e4ac9951_e1a9_4c4b_944f_8d9a2b70669d_Class15 ( Int) Bool)
(declare-fun type_e4ac9951_e1a9_4c4b_944f_8d9a2b70669d_Class14 ( Int) Bool)
(declare-fun type_e4ac9951_e1a9_4c4b_944f_8d9a2b70669d_Class17 ( Int) Bool)
(declare-fun type_e4ac9951_e1a9_4c4b_944f_8d9a2b70669d_Class16 ( Int) Bool)
(declare-fun type_e4ac9951_e1a9_4c4b_944f_8d9a2b70669d_Class19 ( Int) Bool)
(declare-fun type_e4ac9951_e1a9_4c4b_944f_8d9a2b70669d_Class18 ( Int) Bool)
(declare-fun type_e4ac9951_e1a9_4c4b_944f_8d9a2b70669d_Class20 ( Int) Bool)
(declare-fun type_e4ac9951_e1a9_4c4b_944f_8d9a2b70669d_Class22 ( Int) Bool)
(declare-fun type_e4ac9951_e1a9_4c4b_944f_8d9a2b70669d_Class21 ( Int) Bool)
(declare-fun type_e4ac9951_e1a9_4c4b_944f_8d9a2b70669d_Class24 ( Int) Bool)
(declare-fun type_e4ac9951_e1a9_4c4b_944f_8d9a2b70669d_Class23 ( Int) Bool)
(declare-fun type_e4ac9951_e1a9_4c4b_944f_8d9a2b70669d_Class26 ( Int) Bool)
(declare-fun type_e4ac9951_e1a9_4c4b_944f_8d9a2b70669d_Class25 ( Int) Bool)
(declare-fun type_e4ac9951_e1a9_4c4b_944f_8d9a2b70669d_Class28 ( Int) Bool)
(declare-fun type_e4ac9951_e1a9_4c4b_944f_8d9a2b70669d_Class27 ( Int) Bool)
(declare-fun type_e4ac9951_e1a9_4c4b_944f_8d9a2b70669d_Class29 ( Int) Bool)
(declare-fun type_e4ac9951_e1a9_4c4b_944f_8d9a2b70669d_Class8 ( Int) Bool)
(declare-fun type_e4ac9951_e1a9_4c4b_944f_8d9a2b70669d_Class7 ( Int) Bool)
(declare-fun type_e4ac9951_e1a9_4c4b_944f_8d9a2b70669d_Class9 ( Int) Bool)
(declare-fun type_e4ac9951_e1a9_4c4b_944f_8d9a2b70669d_Class4 ( Int) Bool)
(declare-fun type_e4ac9951_e1a9_4c4b_944f_8d9a2b70669d_Class3 ( Int) Bool)
(declare-fun type_e4ac9951_e1a9_4c4b_944f_8d9a2b70669d_Class6 ( Int) Bool)
(declare-fun type_e4ac9951_e1a9_4c4b_944f_8d9a2b70669d_Class5 ( Int) Bool)
(declare-fun type_e4ac9951_e1a9_4c4b_944f_8d9a2b70669d_Class0 ( Int) Bool)
(declare-fun type_e4ac9951_e1a9_4c4b_944f_8d9a2b70669d_Class2 ( Int) Bool)
(declare-fun type_e4ac9951_e1a9_4c4b_944f_8d9a2b70669d_Class1 ( Int) Bool)
(declare-fun oclSelect ( Int Bool) Int)
(declare-fun obj_90e82659_01ba_4c2a_bfbc_23b4b10745c5 ( Int) Int)
(declare-fun Enum0 ( Int) Int)
(declare-fun Enum1 ( Int) Int)
(declare-fun Enum2 ( Int) Int)
(declare-fun container_ ( Int) Int)
(declare-fun oclIncludes ( Int Int) Bool)
(declare-fun ObjAt ( Int Int) Int)

;formula(s) generated
(assert (forall ((p Int)) (=> ( type_e4ac9951_e1a9_4c4b_944f_8d9a2b70669d_Class0 p )  (and (>= ( Enum0 ( obj_90e82659_01ba_4c2a_bfbc_23b4b10745c5 p )  )  0) (<= ( Enum0 ( obj_90e82659_01ba_4c2a_bfbc_23b4b10745c5 p )  )  3)))))
(assert (! (forall ((c0_1 Int)(c0_2 Int)) (=> (and (and ( type_e4ac9951_e1a9_4c4b_944f_8d9a2b70669d_Class0 c0_1 )  ( type_e4ac9951_e1a9_4c4b_944f_8d9a2b70669d_Class25 c0_1 ) ) (and ( type_e4ac9951_e1a9_4c4b_944f_8d9a2b70669d_Class0 c0_2 )  ( type_e4ac9951_e1a9_4c4b_944f_8d9a2b70669d_Class25 c0_2 ) )) (or (<= ( class0_Class0IntAttr1 ( obj_90e82659_01ba_4c2a_bfbc_23b4b10745c5 c0_1 )  )  ( class0_Class0IntAttr2 ( obj_90e82659_01ba_4c2a_bfbc_23b4b10745c5 c0_2 )  ) ) (and (forall ((v Int)) (=> (and ( type_e4ac9951_e1a9_4c4b_944f_8d9a2b70669d_Class0 v )  ( type_e4ac9951_e1a9_4c4b_944f_8d9a2b70669d_Class25 v ) ) (< ( class0_Class0IntAttr1 ( obj_90e82659_01ba_4c2a_bfbc_23b4b10745c5 v )  )  15))) (forall ((v Int)) (=> (and ( type_e4ac9951_e1a9_4c4b_944f_8d9a2b70669d_Class0 v )  ( type_e4ac9951_e1a9_4c4b_944f_8d9a2b70669d_Class25 v ) ) (= ( Enum0 ( obj_90e82659_01ba_4c2a_bfbc_23b4b10745c5 v )  )  1))))))):named l0))
(assert (! (exists ((o Int)) (and ( type_e4ac9951_e1a9_4c4b_944f_8d9a2b70669d_Class0 ( obj_90e82659_01ba_4c2a_bfbc_23b4b10745c5 o )  )  ( type_e4ac9951_e1a9_4c4b_944f_8d9a2b70669d_Class25 ( obj_90e82659_01ba_4c2a_bfbc_23b4b10745c5 o )  ) )):named c0))
(assert (! (exists ((o Int)) ( type_e4ac9951_e1a9_4c4b_944f_8d9a2b70669d_Class1 ( obj_90e82659_01ba_4c2a_bfbc_23b4b10745c5 o )  ) ):named c1))
(assert (! (exists ((o Int)) ( type_e4ac9951_e1a9_4c4b_944f_8d9a2b70669d_Class10 ( obj_90e82659_01ba_4c2a_bfbc_23b4b10745c5 o )  ) ):named c2))
(assert (! (exists ((o Int)) ( type_e4ac9951_e1a9_4c4b_944f_8d9a2b70669d_Class11 ( obj_90e82659_01ba_4c2a_bfbc_23b4b10745c5 o )  ) ):named c3))
(assert (! (exists ((o Int)) ( type_e4ac9951_e1a9_4c4b_944f_8d9a2b70669d_Class12 ( obj_90e82659_01ba_4c2a_bfbc_23b4b10745c5 o )  ) ):named c4))
(assert (! (exists ((o Int)) (and (and ( type_e4ac9951_e1a9_4c4b_944f_8d9a2b70669d_Class13 ( obj_90e82659_01ba_4c2a_bfbc_23b4b10745c5 o )  )  ( type_e4ac9951_e1a9_4c4b_944f_8d9a2b70669d_Class25 ( obj_90e82659_01ba_4c2a_bfbc_23b4b10745c5 o )  ) ) ( type_e4ac9951_e1a9_4c4b_944f_8d9a2b70669d_Class0 ( obj_90e82659_01ba_4c2a_bfbc_23b4b10745c5 o )  ) )):named c5))
(assert (! (exists ((o Int)) (and (and ( type_e4ac9951_e1a9_4c4b_944f_8d9a2b70669d_Class14 ( obj_90e82659_01ba_4c2a_bfbc_23b4b10745c5 o )  )  ( type_e4ac9951_e1a9_4c4b_944f_8d9a2b70669d_Class25 ( obj_90e82659_01ba_4c2a_bfbc_23b4b10745c5 o )  ) ) ( type_e4ac9951_e1a9_4c4b_944f_8d9a2b70669d_Class17 ( obj_90e82659_01ba_4c2a_bfbc_23b4b10745c5 o )  ) )):named c6))
(assert (! (exists ((o Int)) ( type_e4ac9951_e1a9_4c4b_944f_8d9a2b70669d_Class15 ( obj_90e82659_01ba_4c2a_bfbc_23b4b10745c5 o )  ) ):named c7))
(assert (! (exists ((o Int)) ( type_e4ac9951_e1a9_4c4b_944f_8d9a2b70669d_Class16 ( obj_90e82659_01ba_4c2a_bfbc_23b4b10745c5 o )  ) ):named c8))
(assert (! (exists ((o Int)) (and ( type_e4ac9951_e1a9_4c4b_944f_8d9a2b70669d_Class17 ( obj_90e82659_01ba_4c2a_bfbc_23b4b10745c5 o )  )  ( type_e4ac9951_e1a9_4c4b_944f_8d9a2b70669d_Class25 ( obj_90e82659_01ba_4c2a_bfbc_23b4b10745c5 o )  ) )):named c9))
(assert (! (exists ((o Int)) (and (and ( type_e4ac9951_e1a9_4c4b_944f_8d9a2b70669d_Class18 ( obj_90e82659_01ba_4c2a_bfbc_23b4b10745c5 o )  )  ( type_e4ac9951_e1a9_4c4b_944f_8d9a2b70669d_Class25 ( obj_90e82659_01ba_4c2a_bfbc_23b4b10745c5 o )  ) ) ( type_e4ac9951_e1a9_4c4b_944f_8d9a2b70669d_Class17 ( obj_90e82659_01ba_4c2a_bfbc_23b4b10745c5 o )  ) )):named c10))
(assert (! (exists ((o Int)) ( type_e4ac9951_e1a9_4c4b_944f_8d9a2b70669d_Class19 ( obj_90e82659_01ba_4c2a_bfbc_23b4b10745c5 o )  ) ):named c11))
(assert (! (exists ((o Int)) ( type_e4ac9951_e1a9_4c4b_944f_8d9a2b70669d_Class2 ( obj_90e82659_01ba_4c2a_bfbc_23b4b10745c5 o )  ) ):named c12))
(assert (! (exists ((o Int)) ( type_e4ac9951_e1a9_4c4b_944f_8d9a2b70669d_Class20 ( obj_90e82659_01ba_4c2a_bfbc_23b4b10745c5 o )  ) ):named c13))
(assert (! (exists ((o Int)) (and (and (and ( type_e4ac9951_e1a9_4c4b_944f_8d9a2b70669d_Class21 ( obj_90e82659_01ba_4c2a_bfbc_23b4b10745c5 o )  )  ( type_e4ac9951_e1a9_4c4b_944f_8d9a2b70669d_Class25 ( obj_90e82659_01ba_4c2a_bfbc_23b4b10745c5 o )  ) ) ( type_e4ac9951_e1a9_4c4b_944f_8d9a2b70669d_Class13 ( obj_90e82659_01ba_4c2a_bfbc_23b4b10745c5 o )  ) ) ( type_e4ac9951_e1a9_4c4b_944f_8d9a2b70669d_Class0 ( obj_90e82659_01ba_4c2a_bfbc_23b4b10745c5 o )  ) )):named c14))
(assert (! (exists ((o Int)) ( type_e4ac9951_e1a9_4c4b_944f_8d9a2b70669d_Class22 ( obj_90e82659_01ba_4c2a_bfbc_23b4b10745c5 o )  ) ):named c15))
(assert (! (exists ((o Int)) (and (and (and (and ( type_e4ac9951_e1a9_4c4b_944f_8d9a2b70669d_Class23 ( obj_90e82659_01ba_4c2a_bfbc_23b4b10745c5 o )  )  ( type_e4ac9951_e1a9_4c4b_944f_8d9a2b70669d_Class25 ( obj_90e82659_01ba_4c2a_bfbc_23b4b10745c5 o )  ) ) ( type_e4ac9951_e1a9_4c4b_944f_8d9a2b70669d_Class13 ( obj_90e82659_01ba_4c2a_bfbc_23b4b10745c5 o )  ) ) ( type_e4ac9951_e1a9_4c4b_944f_8d9a2b70669d_Class0 ( obj_90e82659_01ba_4c2a_bfbc_23b4b10745c5 o )  ) ) ( type_e4ac9951_e1a9_4c4b_944f_8d9a2b70669d_Class21 ( obj_90e82659_01ba_4c2a_bfbc_23b4b10745c5 o )  ) )):named c16))
(assert (! (exists ((o Int)) (and (and ( type_e4ac9951_e1a9_4c4b_944f_8d9a2b70669d_Class24 ( obj_90e82659_01ba_4c2a_bfbc_23b4b10745c5 o )  )  ( type_e4ac9951_e1a9_4c4b_944f_8d9a2b70669d_Class25 ( obj_90e82659_01ba_4c2a_bfbc_23b4b10745c5 o )  ) ) ( type_e4ac9951_e1a9_4c4b_944f_8d9a2b70669d_Class0 ( obj_90e82659_01ba_4c2a_bfbc_23b4b10745c5 o )  ) )):named c17))
(assert (! (exists ((o Int)) ( type_e4ac9951_e1a9_4c4b_944f_8d9a2b70669d_Class25 ( obj_90e82659_01ba_4c2a_bfbc_23b4b10745c5 o )  ) ):named c18))
(assert (! (exists ((o Int)) ( type_e4ac9951_e1a9_4c4b_944f_8d9a2b70669d_Class26 ( obj_90e82659_01ba_4c2a_bfbc_23b4b10745c5 o )  ) ):named c19))
(assert (! (exists ((o Int)) (and (and ( type_e4ac9951_e1a9_4c4b_944f_8d9a2b70669d_Class27 ( obj_90e82659_01ba_4c2a_bfbc_23b4b10745c5 o )  )  ( type_e4ac9951_e1a9_4c4b_944f_8d9a2b70669d_Class25 ( obj_90e82659_01ba_4c2a_bfbc_23b4b10745c5 o )  ) ) ( type_e4ac9951_e1a9_4c4b_944f_8d9a2b70669d_Class17 ( obj_90e82659_01ba_4c2a_bfbc_23b4b10745c5 o )  ) )):named c20))
(assert (! (exists ((o Int)) (and (and (and (and ( type_e4ac9951_e1a9_4c4b_944f_8d9a2b70669d_Class28 ( obj_90e82659_01ba_4c2a_bfbc_23b4b10745c5 o )  )  ( type_e4ac9951_e1a9_4c4b_944f_8d9a2b70669d_Class25 ( obj_90e82659_01ba_4c2a_bfbc_23b4b10745c5 o )  ) ) ( type_e4ac9951_e1a9_4c4b_944f_8d9a2b70669d_Class13 ( obj_90e82659_01ba_4c2a_bfbc_23b4b10745c5 o )  ) ) ( type_e4ac9951_e1a9_4c4b_944f_8d9a2b70669d_Class0 ( obj_90e82659_01ba_4c2a_bfbc_23b4b10745c5 o )  ) ) ( type_e4ac9951_e1a9_4c4b_944f_8d9a2b70669d_Class21 ( obj_90e82659_01ba_4c2a_bfbc_23b4b10745c5 o )  ) )):named c21))
(assert (! (exists ((o Int)) ( type_e4ac9951_e1a9_4c4b_944f_8d9a2b70669d_Class29 ( obj_90e82659_01ba_4c2a_bfbc_23b4b10745c5 o )  ) ):named c22))
(assert (! (exists ((o Int)) ( type_e4ac9951_e1a9_4c4b_944f_8d9a2b70669d_Class3 ( obj_90e82659_01ba_4c2a_bfbc_23b4b10745c5 o )  ) ):named c23))
(assert (! (exists ((o Int)) (and (and (and (and ( type_e4ac9951_e1a9_4c4b_944f_8d9a2b70669d_Class4 ( obj_90e82659_01ba_4c2a_bfbc_23b4b10745c5 o )  )  ( type_e4ac9951_e1a9_4c4b_944f_8d9a2b70669d_Class25 ( obj_90e82659_01ba_4c2a_bfbc_23b4b10745c5 o )  ) ) ( type_e4ac9951_e1a9_4c4b_944f_8d9a2b70669d_Class24 ( obj_90e82659_01ba_4c2a_bfbc_23b4b10745c5 o )  ) ) ( type_e4ac9951_e1a9_4c4b_944f_8d9a2b70669d_Class6 ( obj_90e82659_01ba_4c2a_bfbc_23b4b10745c5 o )  ) ) ( type_e4ac9951_e1a9_4c4b_944f_8d9a2b70669d_Class0 ( obj_90e82659_01ba_4c2a_bfbc_23b4b10745c5 o )  ) )):named c24))
(assert (! (exists ((o Int)) ( type_e4ac9951_e1a9_4c4b_944f_8d9a2b70669d_Class5 ( obj_90e82659_01ba_4c2a_bfbc_23b4b10745c5 o )  ) ):named c25))
(assert (! (exists ((o Int)) (and (and (and ( type_e4ac9951_e1a9_4c4b_944f_8d9a2b70669d_Class6 ( obj_90e82659_01ba_4c2a_bfbc_23b4b10745c5 o )  )  ( type_e4ac9951_e1a9_4c4b_944f_8d9a2b70669d_Class25 ( obj_90e82659_01ba_4c2a_bfbc_23b4b10745c5 o )  ) ) ( type_e4ac9951_e1a9_4c4b_944f_8d9a2b70669d_Class24 ( obj_90e82659_01ba_4c2a_bfbc_23b4b10745c5 o )  ) ) ( type_e4ac9951_e1a9_4c4b_944f_8d9a2b70669d_Class0 ( obj_90e82659_01ba_4c2a_bfbc_23b4b10745c5 o )  ) )):named c26))
(assert (! (exists ((o Int)) ( type_e4ac9951_e1a9_4c4b_944f_8d9a2b70669d_Class7 ( obj_90e82659_01ba_4c2a_bfbc_23b4b10745c5 o )  ) ):named c27))
(assert (! (exists ((o Int)) ( type_e4ac9951_e1a9_4c4b_944f_8d9a2b70669d_Class8 ( obj_90e82659_01ba_4c2a_bfbc_23b4b10745c5 o )  ) ):named c28))
(assert (! (exists ((o Int)) ( type_e4ac9951_e1a9_4c4b_944f_8d9a2b70669d_Class9 ( obj_90e82659_01ba_4c2a_bfbc_23b4b10745c5 o )  ) ):named c29))

 ;end of formula 